Minimize
 obj: 0 X_0_1
Subject To
 out_0:
  + 1 X_0_1 + 1 X_0_2 + 1 X_0_3 + 1 X_0_4 + 1 X_0_5 + 1 X_0_6 + 1 X_0_7 + 1 X_0_8
  + 1 X_0_9 + 1 X_0_10 + 1 X_0_11 + 1 X_0_12 + 1 X_0_13 + 1 X_0_14
  = 1
 in_0:
  + 1 X_1_0 + 1 X_2_0 + 1 X_3_0 + 1 X_4_0 + 1 X_5_0 + 1 X_6_0 + 1 X_7_0 + 1 X_8_0
  + 1 X_9_0 + 1 X_10_0 + 1 X_11_0 + 1 X_12_0 + 1 X_13_0 + 1 X_14_0
  = 1
 out_1:
  + 1 X_1_0 + 1 X_1_2 + 1 X_1_3 + 1 X_1_4 + 1 X_1_5 + 1 X_1_6 + 1 X_1_7 + 1 X_1_8
  + 1 X_1_9 + 1 X_1_10 + 1 X_1_11 + 1 X_1_12 + 1 X_1_13 + 1 X_1_14
  = 1
 in_1:
  + 1 X_0_1 + 1 X_2_1 + 1 X_3_1 + 1 X_4_1 + 1 X_5_1 + 1 X_6_1 + 1 X_7_1 + 1 X_8_1
  + 1 X_9_1 + 1 X_10_1 + 1 X_11_1 + 1 X_12_1 + 1 X_13_1 + 1 X_14_1
  = 1
 out_2:
  + 1 X_2_0 + 1 X_2_1 + 1 X_2_3 + 1 X_2_4 + 1 X_2_5 + 1 X_2_6 + 1 X_2_7 + 1 X_2_8
  + 1 X_2_9 + 1 X_2_10 + 1 X_2_11 + 1 X_2_12 + 1 X_2_13 + 1 X_2_14
  = 1
 in_2:
  + 1 X_0_2 + 1 X_1_2 + 1 X_3_2 + 1 X_4_2 + 1 X_5_2 + 1 X_6_2 + 1 X_7_2 + 1 X_8_2
  + 1 X_9_2 + 1 X_10_2 + 1 X_11_2 + 1 X_12_2 + 1 X_13_2 + 1 X_14_2
  = 1
 out_3:
  + 1 X_3_0 + 1 X_3_1 + 1 X_3_2 + 1 X_3_4 + 1 X_3_5 + 1 X_3_6 + 1 X_3_7 + 1 X_3_8
  + 1 X_3_9 + 1 X_3_10 + 1 X_3_11 + 1 X_3_12 + 1 X_3_13 + 1 X_3_14
  = 1
 in_3:
  + 1 X_0_3 + 1 X_1_3 + 1 X_2_3 + 1 X_4_3 + 1 X_5_3 + 1 X_6_3 + 1 X_7_3 + 1 X_8_3
  + 1 X_9_3 + 1 X_10_3 + 1 X_11_3 + 1 X_12_3 + 1 X_13_3 + 1 X_14_3
  = 1
 out_4:
  + 1 X_4_0 + 1 X_4_1 + 1 X_4_2 + 1 X_4_3 + 1 X_4_5 + 1 X_4_6 + 1 X_4_7 + 1 X_4_8
  + 1 X_4_9 + 1 X_4_10 + 1 X_4_11 + 1 X_4_12 + 1 X_4_13 + 1 X_4_14
  = 1
 in_4:
  + 1 X_0_4 + 1 X_1_4 + 1 X_2_4 + 1 X_3_4 + 1 X_5_4 + 1 X_6_4 + 1 X_7_4 + 1 X_8_4
  + 1 X_9_4 + 1 X_10_4 + 1 X_11_4 + 1 X_12_4 + 1 X_13_4 + 1 X_14_4
  = 1
 out_5:
  + 1 X_5_0 + 1 X_5_1 + 1 X_5_2 + 1 X_5_3 + 1 X_5_4 + 1 X_5_6 + 1 X_5_7 + 1 X_5_8
  + 1 X_5_9 + 1 X_5_10 + 1 X_5_11 + 1 X_5_12 + 1 X_5_13 + 1 X_5_14
  = 1
 in_5:
  + 1 X_0_5 + 1 X_1_5 + 1 X_2_5 + 1 X_3_5 + 1 X_4_5 + 1 X_6_5 + 1 X_7_5 + 1 X_8_5
  + 1 X_9_5 + 1 X_10_5 + 1 X_11_5 + 1 X_12_5 + 1 X_13_5 + 1 X_14_5
  = 1
 out_6:
  + 1 X_6_0 + 1 X_6_1 + 1 X_6_2 + 1 X_6_3 + 1 X_6_4 + 1 X_6_5 + 1 X_6_7 + 1 X_6_8
  + 1 X_6_9 + 1 X_6_10 + 1 X_6_11 + 1 X_6_12 + 1 X_6_13 + 1 X_6_14
  = 1
 in_6:
  + 1 X_0_6 + 1 X_1_6 + 1 X_2_6 + 1 X_3_6 + 1 X_4_6 + 1 X_5_6 + 1 X_7_6 + 1 X_8_6
  + 1 X_9_6 + 1 X_10_6 + 1 X_11_6 + 1 X_12_6 + 1 X_13_6 + 1 X_14_6
  = 1
 out_7:
  + 1 X_7_0 + 1 X_7_1 + 1 X_7_2 + 1 X_7_3 + 1 X_7_4 + 1 X_7_5 + 1 X_7_6 + 1 X_7_8
  + 1 X_7_9 + 1 X_7_10 + 1 X_7_11 + 1 X_7_12 + 1 X_7_13 + 1 X_7_14
  = 1
 in_7:
  + 1 X_0_7 + 1 X_1_7 + 1 X_2_7 + 1 X_3_7 + 1 X_4_7 + 1 X_5_7 + 1 X_6_7 + 1 X_8_7
  + 1 X_9_7 + 1 X_10_7 + 1 X_11_7 + 1 X_12_7 + 1 X_13_7 + 1 X_14_7
  = 1
 out_8:
  + 1 X_8_0 + 1 X_8_1 + 1 X_8_2 + 1 X_8_3 + 1 X_8_4 + 1 X_8_5 + 1 X_8_6 + 1 X_8_7
  + 1 X_8_9 + 1 X_8_10 + 1 X_8_11 + 1 X_8_12 + 1 X_8_13 + 1 X_8_14
  = 1
 in_8:
  + 1 X_0_8 + 1 X_1_8 + 1 X_2_8 + 1 X_3_8 + 1 X_4_8 + 1 X_5_8 + 1 X_6_8 + 1 X_7_8
  + 1 X_9_8 + 1 X_10_8 + 1 X_11_8 + 1 X_12_8 + 1 X_13_8 + 1 X_14_8
  = 1
 out_9:
  + 1 X_9_0 + 1 X_9_1 + 1 X_9_2 + 1 X_9_3 + 1 X_9_4 + 1 X_9_5 + 1 X_9_6 + 1 X_9_7
  + 1 X_9_8 + 1 X_9_10 + 1 X_9_11 + 1 X_9_12 + 1 X_9_13 + 1 X_9_14
  = 1
 in_9:
  + 1 X_0_9 + 1 X_1_9 + 1 X_2_9 + 1 X_3_9 + 1 X_4_9 + 1 X_5_9 + 1 X_6_9 + 1 X_7_9
  + 1 X_8_9 + 1 X_10_9 + 1 X_11_9 + 1 X_12_9 + 1 X_13_9 + 1 X_14_9
  = 1
 out_10:
  + 1 X_10_0 + 1 X_10_1 + 1 X_10_2 + 1 X_10_3 + 1 X_10_4 + 1 X_10_5 + 1 X_10_6 + 1 X_10_7
  + 1 X_10_8 + 1 X_10_9 + 1 X_10_11 + 1 X_10_12 + 1 X_10_13 + 1 X_10_14
  = 1
 in_10:
  + 1 X_0_10 + 1 X_1_10 + 1 X_2_10 + 1 X_3_10 + 1 X_4_10 + 1 X_5_10 + 1 X_6_10 + 1 X_7_10
  + 1 X_8_10 + 1 X_9_10 + 1 X_11_10 + 1 X_12_10 + 1 X_13_10 + 1 X_14_10
  = 1
 out_11:
  + 1 X_11_0 + 1 X_11_1 + 1 X_11_2 + 1 X_11_3 + 1 X_11_4 + 1 X_11_5 + 1 X_11_6 + 1 X_11_7
  + 1 X_11_8 + 1 X_11_9 + 1 X_11_10 + 1 X_11_12 + 1 X_11_13 + 1 X_11_14
  = 1
 in_11:
  + 1 X_0_11 + 1 X_1_11 + 1 X_2_11 + 1 X_3_11 + 1 X_4_11 + 1 X_5_11 + 1 X_6_11 + 1 X_7_11
  + 1 X_8_11 + 1 X_9_11 + 1 X_10_11 + 1 X_12_11 + 1 X_13_11 + 1 X_14_11
  = 1
 out_12:
  + 1 X_12_0 + 1 X_12_1 + 1 X_12_2 + 1 X_12_3 + 1 X_12_4 + 1 X_12_5 + 1 X_12_6 + 1 X_12_7
  + 1 X_12_8 + 1 X_12_9 + 1 X_12_10 + 1 X_12_11 + 1 X_12_13 + 1 X_12_14
  = 1
 in_12:
  + 1 X_0_12 + 1 X_1_12 + 1 X_2_12 + 1 X_3_12 + 1 X_4_12 + 1 X_5_12 + 1 X_6_12 + 1 X_7_12
  + 1 X_8_12 + 1 X_9_12 + 1 X_10_12 + 1 X_11_12 + 1 X_13_12 + 1 X_14_12
  = 1
 out_13:
  + 1 X_13_0 + 1 X_13_1 + 1 X_13_2 + 1 X_13_3 + 1 X_13_4 + 1 X_13_5 + 1 X_13_6 + 1 X_13_7
  + 1 X_13_8 + 1 X_13_9 + 1 X_13_10 + 1 X_13_11 + 1 X_13_12 + 1 X_13_14
  = 1
 in_13:
  + 1 X_0_13 + 1 X_1_13 + 1 X_2_13 + 1 X_3_13 + 1 X_4_13 + 1 X_5_13 + 1 X_6_13 + 1 X_7_13
  + 1 X_8_13 + 1 X_9_13 + 1 X_10_13 + 1 X_11_13 + 1 X_12_13 + 1 X_14_13
  = 1
 out_14:
  + 1 X_14_0 + 1 X_14_1 + 1 X_14_2 + 1 X_14_3 + 1 X_14_4 + 1 X_14_5 + 1 X_14_6 + 1 X_14_7
  + 1 X_14_8 + 1 X_14_9 + 1 X_14_10 + 1 X_14_11 + 1 X_14_12 + 1 X_14_13
  = 1
 in_14:
  + 1 X_0_14 + 1 X_1_14 + 1 X_2_14 + 1 X_3_14 + 1 X_4_14 + 1 X_5_14 + 1 X_6_14 + 1 X_7_14
  + 1 X_8_14 + 1 X_9_14 + 1 X_10_14 + 1 X_11_14 + 1 X_12_14 + 1 X_13_14
  = 1
 mtz_1_2:
  + 1 U1 - 1 U2 + 14 X_1_2
  <= 13
 mtz_1_3:
  + 1 U1 - 1 U3 + 14 X_1_3
  <= 13
 mtz_1_4:
  + 1 U1 - 1 U4 + 14 X_1_4
  <= 13
 mtz_1_5:
  + 1 U1 - 1 U5 + 14 X_1_5
  <= 13
 mtz_1_6:
  + 1 U1 - 1 U6 + 14 X_1_6
  <= 13
 mtz_1_7:
  + 1 U1 - 1 U7 + 14 X_1_7
  <= 13
 mtz_1_8:
  + 1 U1 - 1 U8 + 14 X_1_8
  <= 13
 mtz_1_9:
  + 1 U1 - 1 U9 + 14 X_1_9
  <= 13
 mtz_1_10:
  + 1 U1 - 1 U10 + 14 X_1_10
  <= 13
 mtz_1_11:
  + 1 U1 - 1 U11 + 14 X_1_11
  <= 13
 mtz_1_12:
  + 1 U1 - 1 U12 + 14 X_1_12
  <= 13
 mtz_1_13:
  + 1 U1 - 1 U13 + 14 X_1_13
  <= 13
 mtz_1_14:
  + 1 U1 - 1 U14 + 14 X_1_14
  <= 13
 mtz_2_1:
  + 1 U2 - 1 U1 + 14 X_2_1
  <= 13
 mtz_2_3:
  + 1 U2 - 1 U3 + 14 X_2_3
  <= 13
 mtz_2_4:
  + 1 U2 - 1 U4 + 14 X_2_4
  <= 13
 mtz_2_5:
  + 1 U2 - 1 U5 + 14 X_2_5
  <= 13
 mtz_2_6:
  + 1 U2 - 1 U6 + 14 X_2_6
  <= 13
 mtz_2_7:
  + 1 U2 - 1 U7 + 14 X_2_7
  <= 13
 mtz_2_8:
  + 1 U2 - 1 U8 + 14 X_2_8
  <= 13
 mtz_2_9:
  + 1 U2 - 1 U9 + 14 X_2_9
  <= 13
 mtz_2_10:
  + 1 U2 - 1 U10 + 14 X_2_10
  <= 13
 mtz_2_11:
  + 1 U2 - 1 U11 + 14 X_2_11
  <= 13
 mtz_2_12:
  + 1 U2 - 1 U12 + 14 X_2_12
  <= 13
 mtz_2_13:
  + 1 U2 - 1 U13 + 14 X_2_13
  <= 13
 mtz_2_14:
  + 1 U2 - 1 U14 + 14 X_2_14
  <= 13
 mtz_3_1:
  + 1 U3 - 1 U1 + 14 X_3_1
  <= 13
 mtz_3_2:
  + 1 U3 - 1 U2 + 14 X_3_2
  <= 13
 mtz_3_4:
  + 1 U3 - 1 U4 + 14 X_3_4
  <= 13
 mtz_3_5:
  + 1 U3 - 1 U5 + 14 X_3_5
  <= 13
 mtz_3_6:
  + 1 U3 - 1 U6 + 14 X_3_6
  <= 13
 mtz_3_7:
  + 1 U3 - 1 U7 + 14 X_3_7
  <= 13
 mtz_3_8:
  + 1 U3 - 1 U8 + 14 X_3_8
  <= 13
 mtz_3_9:
  + 1 U3 - 1 U9 + 14 X_3_9
  <= 13
 mtz_3_10:
  + 1 U3 - 1 U10 + 14 X_3_10
  <= 13
 mtz_3_11:
  + 1 U3 - 1 U11 + 14 X_3_11
  <= 13
 mtz_3_12:
  + 1 U3 - 1 U12 + 14 X_3_12
  <= 13
 mtz_3_13:
  + 1 U3 - 1 U13 + 14 X_3_13
  <= 13
 mtz_3_14:
  + 1 U3 - 1 U14 + 14 X_3_14
  <= 13
 mtz_4_1:
  + 1 U4 - 1 U1 + 14 X_4_1
  <= 13
 mtz_4_2:
  + 1 U4 - 1 U2 + 14 X_4_2
  <= 13
 mtz_4_3:
  + 1 U4 - 1 U3 + 14 X_4_3
  <= 13
 mtz_4_5:
  + 1 U4 - 1 U5 + 14 X_4_5
  <= 13
 mtz_4_6:
  + 1 U4 - 1 U6 + 14 X_4_6
  <= 13
 mtz_4_7:
  + 1 U4 - 1 U7 + 14 X_4_7
  <= 13
 mtz_4_8:
  + 1 U4 - 1 U8 + 14 X_4_8
  <= 13
 mtz_4_9:
  + 1 U4 - 1 U9 + 14 X_4_9
  <= 13
 mtz_4_10:
  + 1 U4 - 1 U10 + 14 X_4_10
  <= 13
 mtz_4_11:
  + 1 U4 - 1 U11 + 14 X_4_11
  <= 13
 mtz_4_12:
  + 1 U4 - 1 U12 + 14 X_4_12
  <= 13
 mtz_4_13:
  + 1 U4 - 1 U13 + 14 X_4_13
  <= 13
 mtz_4_14:
  + 1 U4 - 1 U14 + 14 X_4_14
  <= 13
 mtz_5_1:
  + 1 U5 - 1 U1 + 14 X_5_1
  <= 13
 mtz_5_2:
  + 1 U5 - 1 U2 + 14 X_5_2
  <= 13
 mtz_5_3:
  + 1 U5 - 1 U3 + 14 X_5_3
  <= 13
 mtz_5_4:
  + 1 U5 - 1 U4 + 14 X_5_4
  <= 13
 mtz_5_6:
  + 1 U5 - 1 U6 + 14 X_5_6
  <= 13
 mtz_5_7:
  + 1 U5 - 1 U7 + 14 X_5_7
  <= 13
 mtz_5_8:
  + 1 U5 - 1 U8 + 14 X_5_8
  <= 13
 mtz_5_9:
  + 1 U5 - 1 U9 + 14 X_5_9
  <= 13
 mtz_5_10:
  + 1 U5 - 1 U10 + 14 X_5_10
  <= 13
 mtz_5_11:
  + 1 U5 - 1 U11 + 14 X_5_11
  <= 13
 mtz_5_12:
  + 1 U5 - 1 U12 + 14 X_5_12
  <= 13
 mtz_5_13:
  + 1 U5 - 1 U13 + 14 X_5_13
  <= 13
 mtz_5_14:
  + 1 U5 - 1 U14 + 14 X_5_14
  <= 13
 mtz_6_1:
  + 1 U6 - 1 U1 + 14 X_6_1
  <= 13
 mtz_6_2:
  + 1 U6 - 1 U2 + 14 X_6_2
  <= 13
 mtz_6_3:
  + 1 U6 - 1 U3 + 14 X_6_3
  <= 13
 mtz_6_4:
  + 1 U6 - 1 U4 + 14 X_6_4
  <= 13
 mtz_6_5:
  + 1 U6 - 1 U5 + 14 X_6_5
  <= 13
 mtz_6_7:
  + 1 U6 - 1 U7 + 14 X_6_7
  <= 13
 mtz_6_8:
  + 1 U6 - 1 U8 + 14 X_6_8
  <= 13
 mtz_6_9:
  + 1 U6 - 1 U9 + 14 X_6_9
  <= 13
 mtz_6_10:
  + 1 U6 - 1 U10 + 14 X_6_10
  <= 13
 mtz_6_11:
  + 1 U6 - 1 U11 + 14 X_6_11
  <= 13
 mtz_6_12:
  + 1 U6 - 1 U12 + 14 X_6_12
  <= 13
 mtz_6_13:
  + 1 U6 - 1 U13 + 14 X_6_13
  <= 13
 mtz_6_14:
  + 1 U6 - 1 U14 + 14 X_6_14
  <= 13
 mtz_7_1:
  + 1 U7 - 1 U1 + 14 X_7_1
  <= 13
 mtz_7_2:
  + 1 U7 - 1 U2 + 14 X_7_2
  <= 13
 mtz_7_3:
  + 1 U7 - 1 U3 + 14 X_7_3
  <= 13
 mtz_7_4:
  + 1 U7 - 1 U4 + 14 X_7_4
  <= 13
 mtz_7_5:
  + 1 U7 - 1 U5 + 14 X_7_5
  <= 13
 mtz_7_6:
  + 1 U7 - 1 U6 + 14 X_7_6
  <= 13
 mtz_7_8:
  + 1 U7 - 1 U8 + 14 X_7_8
  <= 13
 mtz_7_9:
  + 1 U7 - 1 U9 + 14 X_7_9
  <= 13
 mtz_7_10:
  + 1 U7 - 1 U10 + 14 X_7_10
  <= 13
 mtz_7_11:
  + 1 U7 - 1 U11 + 14 X_7_11
  <= 13
 mtz_7_12:
  + 1 U7 - 1 U12 + 14 X_7_12
  <= 13
 mtz_7_13:
  + 1 U7 - 1 U13 + 14 X_7_13
  <= 13
 mtz_7_14:
  + 1 U7 - 1 U14 + 14 X_7_14
  <= 13
 mtz_8_1:
  + 1 U8 - 1 U1 + 14 X_8_1
  <= 13
 mtz_8_2:
  + 1 U8 - 1 U2 + 14 X_8_2
  <= 13
 mtz_8_3:
  + 1 U8 - 1 U3 + 14 X_8_3
  <= 13
 mtz_8_4:
  + 1 U8 - 1 U4 + 14 X_8_4
  <= 13
 mtz_8_5:
  + 1 U8 - 1 U5 + 14 X_8_5
  <= 13
 mtz_8_6:
  + 1 U8 - 1 U6 + 14 X_8_6
  <= 13
 mtz_8_7:
  + 1 U8 - 1 U7 + 14 X_8_7
  <= 13
 mtz_8_9:
  + 1 U8 - 1 U9 + 14 X_8_9
  <= 13
 mtz_8_10:
  + 1 U8 - 1 U10 + 14 X_8_10
  <= 13
 mtz_8_11:
  + 1 U8 - 1 U11 + 14 X_8_11
  <= 13
 mtz_8_12:
  + 1 U8 - 1 U12 + 14 X_8_12
  <= 13
 mtz_8_13:
  + 1 U8 - 1 U13 + 14 X_8_13
  <= 13
 mtz_8_14:
  + 1 U8 - 1 U14 + 14 X_8_14
  <= 13
 mtz_9_1:
  + 1 U9 - 1 U1 + 14 X_9_1
  <= 13
 mtz_9_2:
  + 1 U9 - 1 U2 + 14 X_9_2
  <= 13
 mtz_9_3:
  + 1 U9 - 1 U3 + 14 X_9_3
  <= 13
 mtz_9_4:
  + 1 U9 - 1 U4 + 14 X_9_4
  <= 13
 mtz_9_5:
  + 1 U9 - 1 U5 + 14 X_9_5
  <= 13
 mtz_9_6:
  + 1 U9 - 1 U6 + 14 X_9_6
  <= 13
 mtz_9_7:
  + 1 U9 - 1 U7 + 14 X_9_7
  <= 13
 mtz_9_8:
  + 1 U9 - 1 U8 + 14 X_9_8
  <= 13
 mtz_9_10:
  + 1 U9 - 1 U10 + 14 X_9_10
  <= 13
 mtz_9_11:
  + 1 U9 - 1 U11 + 14 X_9_11
  <= 13
 mtz_9_12:
  + 1 U9 - 1 U12 + 14 X_9_12
  <= 13
 mtz_9_13:
  + 1 U9 - 1 U13 + 14 X_9_13
  <= 13
 mtz_9_14:
  + 1 U9 - 1 U14 + 14 X_9_14
  <= 13
 mtz_10_1:
  + 1 U10 - 1 U1 + 14 X_10_1
  <= 13
 mtz_10_2:
  + 1 U10 - 1 U2 + 14 X_10_2
  <= 13
 mtz_10_3:
  + 1 U10 - 1 U3 + 14 X_10_3
  <= 13
 mtz_10_4:
  + 1 U10 - 1 U4 + 14 X_10_4
  <= 13
 mtz_10_5:
  + 1 U10 - 1 U5 + 14 X_10_5
  <= 13
 mtz_10_6:
  + 1 U10 - 1 U6 + 14 X_10_6
  <= 13
 mtz_10_7:
  + 1 U10 - 1 U7 + 14 X_10_7
  <= 13
 mtz_10_8:
  + 1 U10 - 1 U8 + 14 X_10_8
  <= 13
 mtz_10_9:
  + 1 U10 - 1 U9 + 14 X_10_9
  <= 13
 mtz_10_11:
  + 1 U10 - 1 U11 + 14 X_10_11
  <= 13
 mtz_10_12:
  + 1 U10 - 1 U12 + 14 X_10_12
  <= 13
 mtz_10_13:
  + 1 U10 - 1 U13 + 14 X_10_13
  <= 13
 mtz_10_14:
  + 1 U10 - 1 U14 + 14 X_10_14
  <= 13
 mtz_11_1:
  + 1 U11 - 1 U1 + 14 X_11_1
  <= 13
 mtz_11_2:
  + 1 U11 - 1 U2 + 14 X_11_2
  <= 13
 mtz_11_3:
  + 1 U11 - 1 U3 + 14 X_11_3
  <= 13
 mtz_11_4:
  + 1 U11 - 1 U4 + 14 X_11_4
  <= 13
 mtz_11_5:
  + 1 U11 - 1 U5 + 14 X_11_5
  <= 13
 mtz_11_6:
  + 1 U11 - 1 U6 + 14 X_11_6
  <= 13
 mtz_11_7:
  + 1 U11 - 1 U7 + 14 X_11_7
  <= 13
 mtz_11_8:
  + 1 U11 - 1 U8 + 14 X_11_8
  <= 13
 mtz_11_9:
  + 1 U11 - 1 U9 + 14 X_11_9
  <= 13
 mtz_11_10:
  + 1 U11 - 1 U10 + 14 X_11_10
  <= 13
 mtz_11_12:
  + 1 U11 - 1 U12 + 14 X_11_12
  <= 13
 mtz_11_13:
  + 1 U11 - 1 U13 + 14 X_11_13
  <= 13
 mtz_11_14:
  + 1 U11 - 1 U14 + 14 X_11_14
  <= 13
 mtz_12_1:
  + 1 U12 - 1 U1 + 14 X_12_1
  <= 13
 mtz_12_2:
  + 1 U12 - 1 U2 + 14 X_12_2
  <= 13
 mtz_12_3:
  + 1 U12 - 1 U3 + 14 X_12_3
  <= 13
 mtz_12_4:
  + 1 U12 - 1 U4 + 14 X_12_4
  <= 13
 mtz_12_5:
  + 1 U12 - 1 U5 + 14 X_12_5
  <= 13
 mtz_12_6:
  + 1 U12 - 1 U6 + 14 X_12_6
  <= 13
 mtz_12_7:
  + 1 U12 - 1 U7 + 14 X_12_7
  <= 13
 mtz_12_8:
  + 1 U12 - 1 U8 + 14 X_12_8
  <= 13
 mtz_12_9:
  + 1 U12 - 1 U9 + 14 X_12_9
  <= 13
 mtz_12_10:
  + 1 U12 - 1 U10 + 14 X_12_10
  <= 13
 mtz_12_11:
  + 1 U12 - 1 U11 + 14 X_12_11
  <= 13
 mtz_12_13:
  + 1 U12 - 1 U13 + 14 X_12_13
  <= 13
 mtz_12_14:
  + 1 U12 - 1 U14 + 14 X_12_14
  <= 13
 mtz_13_1:
  + 1 U13 - 1 U1 + 14 X_13_1
  <= 13
 mtz_13_2:
  + 1 U13 - 1 U2 + 14 X_13_2
  <= 13
 mtz_13_3:
  + 1 U13 - 1 U3 + 14 X_13_3
  <= 13
 mtz_13_4:
  + 1 U13 - 1 U4 + 14 X_13_4
  <= 13
 mtz_13_5:
  + 1 U13 - 1 U5 + 14 X_13_5
  <= 13
 mtz_13_6:
  + 1 U13 - 1 U6 + 14 X_13_6
  <= 13
 mtz_13_7:
  + 1 U13 - 1 U7 + 14 X_13_7
  <= 13
 mtz_13_8:
  + 1 U13 - 1 U8 + 14 X_13_8
  <= 13
 mtz_13_9:
  + 1 U13 - 1 U9 + 14 X_13_9
  <= 13
 mtz_13_10:
  + 1 U13 - 1 U10 + 14 X_13_10
  <= 13
 mtz_13_11:
  + 1 U13 - 1 U11 + 14 X_13_11
  <= 13
 mtz_13_12:
  + 1 U13 - 1 U12 + 14 X_13_12
  <= 13
 mtz_13_14:
  + 1 U13 - 1 U14 + 14 X_13_14
  <= 13
 mtz_14_1:
  + 1 U14 - 1 U1 + 14 X_14_1
  <= 13
 mtz_14_2:
  + 1 U14 - 1 U2 + 14 X_14_2
  <= 13
 mtz_14_3:
  + 1 U14 - 1 U3 + 14 X_14_3
  <= 13
 mtz_14_4:
  + 1 U14 - 1 U4 + 14 X_14_4
  <= 13
 mtz_14_5:
  + 1 U14 - 1 U5 + 14 X_14_5
  <= 13
 mtz_14_6:
  + 1 U14 - 1 U6 + 14 X_14_6
  <= 13
 mtz_14_7:
  + 1 U14 - 1 U7 + 14 X_14_7
  <= 13
 mtz_14_8:
  + 1 U14 - 1 U8 + 14 X_14_8
  <= 13
 mtz_14_9:
  + 1 U14 - 1 U9 + 14 X_14_9
  <= 13
 mtz_14_10:
  + 1 U14 - 1 U10 + 14 X_14_10
  <= 13
 mtz_14_11:
  + 1 U14 - 1 U11 + 14 X_14_11
  <= 13
 mtz_14_12:
  + 1 U14 - 1 U12 + 14 X_14_12
  <= 13
 mtz_14_13:
  + 1 U14 - 1 U13 + 14 X_14_13
  <= 13
 obj1:
  + 281 X_0_1 + 532 X_0_2 + 783 X_0_3 + 463 X_0_4 + 647 X_0_5 + 500 X_0_6 + 392 X_0_7 + 257 X_0_8
  + 669 X_0_9 + 460 X_0_10 + 483 X_0_11 + 527 X_0_12 + 136 X_0_13 + 398 X_0_14 + 281 X_1_0 + 747 X_1_2
  + 875 X_1_3 + 500 X_1_4 + 802 X_1_5 + 775 X_1_6 + 588 X_1_7 + 423 X_1_8 + 927 X_1_9 + 483 X_1_10
  + 543 X_1_11 + 628 X_1_12 + 415 X_1_13 + 580 X_1_14 + 532 X_2_0 + 747 X_2_1 + 427 X_2_3 + 429 X_2_4
  + 208 X_2_5 + 299 X_2_6 + 161 X_2_7 + 714 X_2_8 + 259 X_2_9 + 451 X_2_10 + 386 X_2_11 + 305 X_2_12
  + 481 X_2_13 + 177 X_2_14 + 783 X_3_0 + 875 X_3_1 + 427 X_3_2 + 378 X_3_4 + 220 X_3_5 + 726 X_3_6
  + 439 X_3_7 + 1025 X_3_8 + 649 X_3_9 + 398 X_3_10 + 332 X_3_11 + 256 X_3_12 + 800 X_3_13 + 416 X_3_14
  + 463 X_4_0 + 500 X_4_1 + 429 X_4_2 + 378 X_4_3 + 364 X_4_5 + 646 X_4_6 + 303 X_4_7 + 721 X_4_8
  + 684 X_4_9 + 24 X_4_10 + 54 X_4_11 + 159 X_4_12 + 529 X_4_13 + 273 X_4_14 + 647 X_5_0 + 802 X_5_1
  + 208 X_5_2 + 220 X_5_3 + 364 X_5_4 + 508 X_5_6 + 261 X_5_7 + 866 X_5_8 + 432 X_5_9 + 388 X_5_10
  + 310 X_5_11 + 205 X_5_12 + 633 X_5_13 + 249 X_5_14 + 500 X_6_0 + 775 X_6_1 + 299 X_6_2 + 726 X_6_3
  + 646 X_6_4 + 508 X_6_5 + 346 X_6_7 + 572 X_6_8 + 209 X_6_9 + 662 X_6_10 + 618 X_6_11 + 568 X_6_12
  + 385 X_6_13 + 377 X_6_14 + 392 X_7_0 + 588 X_7_1 + 161 X_7_2 + 439 X_7_3 + 303 X_7_4 + 261 X_7_5
  + 346 X_7_6 + 604 X_7_8 + 391 X_7_9 + 321 X_7_10 + 272 X_7_11 + 228 X_7_12 + 372 X_7_13 + 31 X_7_14
  + 257 X_8_0 + 423 X_8_1 + 714 X_8_2 + 1025 X_8_3 + 721 X_8_4 + 866 X_8_5 + 572 X_8_6 + 604 X_8_7
  + 775 X_8_9 + 717 X_8_10 + 738 X_8_11 + 774 X_8_12 + 234 X_8_13 + 619 X_8_14 + 669 X_9_0 + 927 X_9_1
  + 259 X_9_2 + 649 X_9_3 + 684 X_9_4 + 432 X_9_5 + 209 X_9_6 + 391 X_9_7 + 775 X_9_8 + 705 X_9_10
  + 643 X_9_11 + 564 X_9_12 + 571 X_9_13 + 417 X_9_14 + 460 X_10_0 + 483 X_10_1 + 451 X_10_2 + 398 X_10_3
  + 24 X_10_4 + 388 X_10_5 + 662 X_10_6 + 321 X_10_7 + 717 X_10_8 + 705 X_10_9 + 78 X_10_11 + 183 X_10_12
  + 531 X_10_13 + 292 X_10_14 + 483 X_11_0 + 543 X_11_1 + 386 X_11_2 + 332 X_11_3 + 54 X_11_4 + 310 X_11_5
  + 618 X_11_6 + 272 X_11_7 + 738 X_11_8 + 643 X_11_9 + 78 X_11_10 + 105 X_11_12 + 536 X_11_13 + 241 X_11_14
  + 527 X_12_0 + 628 X_12_1 + 305 X_12_2 + 256 X_12_3 + 159 X_12_4 + 205 X_12_5 + 568 X_12_6 + 228 X_12_7
  + 774 X_12_8 + 564 X_12_9 + 183 X_12_10 + 105 X_12_11 + 555 X_12_13 + 198 X_12_14 + 136 X_13_0 + 415 X_13_1
  + 481 X_13_2 + 800 X_13_3 + 529 X_13_4 + 633 X_13_5 + 385 X_13_6 + 372 X_13_7 + 234 X_13_8 + 571 X_13_9
  + 531 X_13_10 + 536 X_13_11 + 555 X_13_12 + 388 X_13_14 + 398 X_14_0 + 580 X_14_1 + 177 X_14_2 + 416 X_14_3
  + 273 X_14_4 + 249 X_14_5 + 377 X_14_6 + 31 X_14_7 + 619 X_14_8 + 417 X_14_9 + 292 X_14_10 + 241 X_14_11
  + 198 X_14_12 + 388 X_14_13
  <= 1
 obj2:
  + 664 X_0_1 + 697 X_0_2 + 250 X_0_3 + 227 X_0_4 + 734 X_0_5 + 221 X_0_6 + 634 X_0_7 + 795 X_0_8
  + 18 X_0_9 + 513 X_0_10 + 267 X_0_11 + 784 X_0_12 + 111 X_0_13 + 678 X_0_14 + 664 X_1_0 + 680 X_1_2
  + 915 X_1_3 + 602 X_1_4 + 218 X_1_5 + 885 X_1_6 + 219 X_1_7 + 820 X_1_8 + 654 X_1_9 + 199 X_1_10
  + 773 X_1_11 + 808 X_1_12 + 578 X_1_13 + 125 X_1_14 + 697 X_2_0 + 680 X_2_1 + 844 X_2_3 + 847 X_2_4
  + 524 X_2_5 + 833 X_2_6 + 850 X_2_7 + 140 X_2_8 + 705 X_2_9 + 512 X_2_10 + 537 X_2_11 + 128 X_2_12
  + 718 X_2_13 + 573 X_2_14 + 250 X_3_0 + 915 X_3_1 + 844 X_3_2 + 409 X_3_4 + 975 X_3_5 + 32 X_3_6
  + 876 X_3_7 + 912 X_3_8 + 261 X_3_9 + 758 X_3_10 + 312 X_3_11 + 903 X_3_12 + 348 X_3_13 + 924 X_3_14
  + 227 X_4_0 + 602 X_4_1 + 847 X_4_2 + 409 X_4_3 + 736 X_4_5 + 377 X_4_6 + 500 X_4_7 + 963 X_4_8
  + 210 X_4_9 + 513 X_4_10 + 492 X_4_11 + 951 X_4_12 + 140 X_4_13 + 657 X_4_14 + 734 X_5_0 + 218 X_5_1
  + 524 X_5_2 + 975 X_5_3 + 736 X_5_4 + 949 X_5_6 + 437 X_5_7 + 657 X_5_8 + 729 X_5_9 + 225 X_5_10
  + 767 X_5_11 + 646 X_5_12 + 674 X_5_13 + 97 X_5_14 + 221 X_6_0 + 885 X_6_1 + 833 X_6_2 + 32 X_6_3
  + 377 X_6_4 + 949 X_6_5 + 845 X_6_7 + 905 X_6_8 + 231 X_6_9 + 731 X_6_10 + 306 X_6_11 + 896 X_6_12
  + 317 X_6_13 + 897 X_6_14 + 634 X_7_0 + 219 X_7_1 + 850 X_7_2 + 876 X_7_3 + 500 X_7_4 + 437 X_7_5
  + 845 X_7_6 + 990 X_7_8 + 620 X_7_9 + 337 X_7_10 + 812 X_7_11 + 978 X_7_12 + 528 X_7_13 + 341 X_7_14
  + 795 X_8_0 + 820 X_8_1 + 140 X_8_2 + 912 X_8_3 + 963 X_8_4 + 657 X_8_5 + 905 X_8_6 + 990 X_8_7
  + 805 X_8_9 + 653 X_8_10 + 599 X_8_11 + 12 X_8_12 + 828 X_8_13 + 711 X_8_14 + 18 X_9_0 + 654 X_9_1
  + 705 X_9_2 + 261 X_9_3 + 210 X_9_4 + 729 X_9_5 + 231 X_9_6 + 620 X_9_7 + 805 X_9_8 + 507 X_9_10
  + 284 X_9_11 + 794 X_9_12 + 94 X_9_13 + 671 X_9_14 + 513 X_10_0 + 199 X_10_1 + 512 X_10_2 + 758 X_10_3
  + 513 X_10_4 + 225 X_10_5 + 731 X_10_6 + 337 X_10_7 + 653 X_10_8 + 507 X_10_9 + 583 X_10_11 + 641 X_10_12
  + 448 X_10_13 + 166 X_10_14 + 267 X_11_0 + 773 X_11_1 + 537 X_11_2 + 312 X_11_3 + 492 X_11_4 + 767 X_11_5
  + 306 X_11_6 + 812 X_11_7 + 599 X_11_8 + 284 X_11_9 + 583 X_11_10 + 590 X_11_12 + 360 X_11_13 + 743 X_11_14
  + 784 X_12_0 + 808 X_12_1 + 128 X_12_2 + 903 X_12_3 + 951 X_12_4 + 646 X_12_5 + 896 X_12_6 + 978 X_12_7
  + 12 X_12_8 + 794 X_12_9 + 641 X_12_10 + 590 X_12_11 + 817 X_12_13 + 700 X_12_14 + 111 X_13_0 + 578 X_13_1
  + 718 X_13_2 + 348 X_13_3 + 140 X_13_4 + 674 X_13_5 + 317 X_13_6 + 528 X_13_7 + 828 X_13_8 + 94 X_13_9
  + 448 X_13_10 + 360 X_13_11 + 817 X_13_12 + 607 X_13_14 + 678 X_14_0 + 125 X_14_1 + 573 X_14_2 + 924 X_14_3
  + 657 X_14_4 + 97 X_14_5 + 897 X_14_6 + 341 X_14_7 + 711 X_14_8 + 671 X_14_9 + 166 X_14_10 + 743 X_14_11
  + 700 X_14_12 + 607 X_14_13
  <= 2
 obj3:
  + 617 X_0_1 + 387 X_0_2 + 385 X_0_3 + 562 X_0_4 + 680 X_0_5 + 632 X_0_6 + 736 X_0_7 + 519 X_0_8
  + 381 X_0_9 + 696 X_0_10 + 329 X_0_11 + 522 X_0_12 + 331 X_0_13 + 533 X_0_14 + 617 X_1_0 + 230 X_1_2
  + 901 X_1_3 + 620 X_1_4 + 897 X_1_5 + 358 X_1_6 + 779 X_1_7 + 871 X_1_8 + 292 X_1_9 + 466 X_1_10
  + 367 X_1_11 + 252 X_1_12 + 293 X_1_13 + 422 X_1_14 + 387 X_2_0 + 230 X_2_1 + 691 X_2_3 + 524 X_2_4
  + 771 X_2_5 + 379 X_2_6 + 707 X_2_7 + 702 X_2_8 + 142 X_2_9 + 482 X_2_10 + 194 X_2_11 + 233 X_2_12
  + 79 X_2_13 + 364 X_2_14 + 385 X_3_0 + 901 X_3_1 + 691 X_3_2 + 518 X_3_4 + 450 X_3_5 + 757 X_3_6
  + 615 X_3_7 + 244 X_3_8 + 612 X_3_9 + 768 X_3_10 + 536 X_3_11 + 713 X_3_12 + 615 X_3_13 + 625 X_3_14
  + 562 X_4_0 + 620 X_4_1 + 524 X_4_2 + 518 X_4_3 + 284 X_4_5 + 315 X_4_6 + 187 X_4_7 + 342 X_4_8
  + 382 X_4_9 + 275 X_4_10 + 342 X_4_11 + 367 X_4_12 + 459 X_4_13 + 200 X_4_14 + 680 X_5_0 + 897 X_5_1
  + 771 X_5_2 + 450 X_5_3 + 284 X_5_4 + 598 X_5_6 + 225 X_5_7 + 206 X_5_8 + 635 X_5_9 + 542 X_5_10
  + 577 X_5_11 + 647 X_5_12 + 697 X_5_13 + 484 X_5_14 + 632 X_6_0 + 358 X_6_1 + 379 X_6_2 + 757 X_6_3
  + 315 X_6_4 + 598 X_6_5 + 438 X_6_7 + 638 X_6_8 + 273 X_6_9 + 110 X_6_10 + 304 X_6_11 + 145 X_6_12
  + 359 X_6_13 + 134 X_6_14 + 736 X_7_0 + 779 X_7_1 + 707 X_7_2 + 615 X_7_3 + 187 X_7_4 + 225 X_7_5
  + 438 X_7_6 + 388 X_7_8 + 565 X_7_9 + 356 X_7_10 + 529 X_7_11 + 528 X_7_12 + 645 X_7_13 + 358 X_7_14
  + 519 X_8_0 + 871 X_8_1 + 702 X_8_2 + 244 X_8_3 + 342 X_8_4 + 206 X_8_5 + 638 X_8_6 + 388 X_8_7
  + 584 X_8_9 + 616 X_8_10 + 513 X_8_11 + 641 X_8_12 + 622 X_8_13 + 506 X_8_14 + 381 X_9_0 + 292 X_9_1
  + 142 X_9_2 + 612 X_9_3 + 382 X_9_4 + 635 X_9_5 + 273 X_9_6 + 565 X_9_7 + 584 X_9_8 + 364 X_9_10
  + 75 X_9_11 + 142 X_9_12 + 90 X_9_13 + 228 X_9_14 + 696 X_10_0 + 466 X_10_1 + 482 X_10_2 + 768 X_10_3
  + 275 X_10_4 + 542 X_10_5 + 110 X_10_6 + 356 X_10_7 + 616 X_10_8 + 364 X_10_9 + 379 X_10_11 + 250 X_10_12
  + 453 X_10_13 + 163 X_10_14 + 329 X_11_0 + 367 X_11_1 + 194 X_11_2 + 536 X_11_3 + 342 X_11_4 + 577 X_11_5
  + 304 X_11_6 + 529 X_11_7 + 513 X_11_8 + 75 X_11_9 + 379 X_11_10 + 197 X_11_12 + 120 X_11_13 + 225 X_11_14
  + 522 X_12_0 + 252 X_12_1 + 233 X_12_2 + 713 X_12_3 + 367 X_12_4 + 647 X_12_5 + 145 X_12_6 + 528 X_12_7
  + 641 X_12_8 + 142 X_12_9 + 250 X_12_10 + 197 X_12_11 + 220 X_12_13 + 170 X_12_14 + 331 X_13_0 + 293 X_13_1
  + 79 X_13_2 + 615 X_13_3 + 459 X_13_4 + 697 X_13_5 + 359 X_13_6 + 645 X_13_7 + 622 X_13_8 + 90 X_13_9
  + 453 X_13_10 + 120 X_13_11 + 220 X_13_12 + 317 X_13_14 + 533 X_14_0 + 422 X_14_1 + 364 X_14_2 + 625 X_14_3
  + 200 X_14_4 + 484 X_14_5 + 134 X_14_6 + 358 X_14_7 + 506 X_14_8 + 228 X_14_9 + 163 X_14_10 + 225 X_14_11
  + 170 X_14_12 + 317 X_14_13
  <= 3
 obj4:
  + 484 X_0_1 + 404 X_0_2 + 233 X_0_3 + 689 X_0_4 + 325 X_0_5 + 226 X_0_6 + 389 X_0_7 + 300 X_0_8
  + 527 X_0_9 + 749 X_0_10 + 368 X_0_11 + 75 X_0_12 + 302 X_0_13 + 654 X_0_14 + 484 X_1_0 + 751 X_1_2
  + 680 X_1_3 + 799 X_1_4 + 161 X_1_5 + 614 X_1_6 + 654 X_1_7 + 762 X_1_8 + 1009 X_1_9 + 931 X_1_10
  + 740 X_1_11 + 545 X_1_12 + 229 X_1_13 + 1096 X_1_14 + 404 X_2_0 + 751 X_2_1 + 516 X_2_3 + 402 X_2_4
  + 602 X_2_5 + 576 X_2_6 + 129 X_2_7 + 518 X_2_8 + 454 X_2_9 + 392 X_2_10 + 685 X_2_11 + 427 X_2_12
  + 521 X_2_13 + 384 X_2_14 + 233 X_3_0 + 680 X_3_1 + 516 X_3_2 + 872 X_3_4 + 532 X_3_5 + 100 X_3_6
  + 554 X_3_7 + 85 X_3_8 + 411 X_3_9 + 902 X_3_10 + 169 X_3_11 + 158 X_3_12 + 528 X_3_13 + 623 X_3_14
  + 689 X_4_0 + 799 X_4_1 + 402 X_4_2 + 872 X_4_3 + 707 X_4_5 + 906 X_4_6 + 320 X_4_7 + 895 X_4_8
  + 851 X_4_9 + 158 X_4_10 + 1036 X_4_11 + 743 X_4_12 + 612 X_4_13 + 714 X_4_14 + 325 X_5_0 + 161 X_5_1
  + 602 X_5_2 + 532 X_5_3 + 707 X_5_4 + 477 X_5_6 + 516 X_5_7 + 611 X_5_8 + 847 X_5_9 + 824 X_5_10
  + 612 X_5_11 + 389 X_5_12 + 95 X_5_13 + 936 X_5_14 + 226 X_6_0 + 614 X_6_1 + 576 X_6_2 + 100 X_6_3
  + 906 X_6_4 + 477 X_6_5 + 594 X_6_7 + 180 X_6_8 + 512 X_6_9 + 951 X_6_10 + 144 X_6_11 + 162 X_6_12
  + 490 X_6_13 + 718 X_6_14 + 389 X_7_0 + 654 X_7_1 + 129 X_7_2 + 554 X_7_3 + 320 X_7_4 + 516 X_7_5
  + 594 X_7_6 + 575 X_7_8 + 570 X_7_9 + 360 X_7_10 + 720 X_7_11 + 433 X_7_12 + 428 X_7_13 + 513 X_7_14
  + 300 X_8_0 + 762 X_8_1 + 518 X_8_2 + 85 X_8_3 + 895 X_8_4 + 611 X_8_5 + 180 X_8_6 + 575 X_8_7
  + 339 X_8_9 + 910 X_8_10 + 193 X_8_11 + 227 X_8_12 + 602 X_8_13 + 570 X_8_14 + 527 X_9_0 + 1009 X_9_1
  + 454 X_9_2 + 411 X_9_3 + 851 X_9_4 + 847 X_9_5 + 512 X_9_6 + 570 X_9_7 + 339 X_9_8 + 805 X_9_10
  + 521 X_9_11 + 478 X_9_12 + 804 X_9_13 + 271 X_9_14 + 749 X_10_0 + 931 X_10_1 + 392 X_10_2 + 902 X_10_3
  + 158 X_10_4 + 824 X_10_5 + 951 X_10_6 + 360 X_10_7 + 910 X_10_8 + 805 X_10_9 + 1071 X_10_11 + 792 X_10_12
  + 729 X_10_13 + 626 X_10_14 + 368 X_11_0 + 740 X_11_1 + 685 X_11_2 + 169 X_11_3 + 1036 X_11_4 + 612 X_11_5
  + 144 X_11_6 + 720 X_11_7 + 193 X_11_8 + 521 X_11_9 + 1071 X_11_10 + 299 X_11_12 + 632 X_11_13 + 762 X_11_14
  + 75 X_12_0 + 545 X_12_1 + 427 X_12_2 + 158 X_12_3 + 743 X_12_4 + 389 X_12_5 + 162 X_12_6 + 433 X_12_7
  + 227 X_12_8 + 478 X_12_9 + 792 X_12_10 + 299 X_12_11 + 375 X_12_13 + 632 X_12_14 + 302 X_13_0 + 229 X_13_1
  + 521 X_13_2 + 528 X_13_3 + 612 X_13_4 + 95 X_13_5 + 490 X_13_6 + 428 X_13_7 + 602 X_13_8 + 804 X_13_9
  + 729 X_13_10 + 632 X_13_11 + 375 X_13_12 + 870 X_13_14 + 654 X_14_0 + 1096 X_14_1 + 384 X_14_2 + 623 X_14_3
  + 714 X_14_4 + 936 X_14_5 + 718 X_14_6 + 513 X_14_7 + 570 X_14_8 + 271 X_14_9 + 626 X_14_10 + 762 X_14_11
  + 632 X_14_12 + 870 X_14_13
  <= 4
 obj5:
  + 508 X_0_1 + 822 X_0_2 + 475 X_0_3 + 495 X_0_4 + 113 X_0_5 + 767 X_0_6 + 838 X_0_7 + 489 X_0_8
  + 757 X_0_9 + 634 X_0_10 + 713 X_0_11 + 789 X_0_12 + 793 X_0_13 + 1063 X_0_14 + 508 X_1_0 + 634 X_1_2
  + 467 X_1_3 + 200 X_1_4 + 399 X_1_5 + 511 X_1_6 + 411 X_1_7 + 548 X_1_8 + 469 X_1_9 + 130 X_1_10
  + 406 X_1_11 + 442 X_1_12 + 443 X_1_13 + 558 X_1_14 + 822 X_2_0 + 634 X_2_1 + 352 X_2_3 + 446 X_2_4
  + 734 X_2_5 + 138 X_2_6 + 412 X_2_7 + 376 X_2_8 + 191 X_2_9 + 607 X_2_10 + 247 X_2_11 + 271 X_2_12
  + 1055 X_2_13 + 760 X_2_14 + 475 X_3_0 + 467 X_3_1 + 352 X_3_2 + 280 X_3_4 + 399 X_3_5 + 333 X_3_6
  + 522 X_3_7 + 85 X_3_8 + 344 X_3_9 + 516 X_3_10 + 329 X_3_11 + 412 X_3_12 + 907 X_3_13 + 851 X_3_14
  + 495 X_4_0 + 200 X_4_1 + 446 X_4_2 + 280 X_4_3 + 383 X_4_5 + 336 X_4_6 + 343 X_4_7 + 365 X_4_8
  + 303 X_4_9 + 236 X_4_10 + 245 X_4_11 + 307 X_4_12 + 642 X_4_13 + 611 X_4_14 + 113 X_5_0 + 399 X_5_1
  + 734 X_5_2 + 399 X_5_3 + 383 X_5_4 + 669 X_5_6 + 726 X_5_7 + 430 X_5_8 + 654 X_5_9 + 523 X_5_10
  + 608 X_5_11 + 682 X_5_12 + 717 X_5_13 + 951 X_5_14 + 767 X_6_0 + 511 X_6_1 + 138 X_6_2 + 333 X_6_3
  + 336 X_6_4 + 669 X_6_5 + 281 X_6_7 + 386 X_6_8 + 53 X_6_9 + 473 X_6_10 + 111 X_6_11 + 138 X_6_12
  + 922 X_6_13 + 634 X_6_14 + 838 X_7_0 + 411 X_7_1 + 412 X_7_2 + 522 X_7_3 + 343 X_7_4 + 726 X_7_5
  + 281 X_7_6 + 599 X_7_8 + 230 X_7_9 + 310 X_7_10 + 204 X_7_11 + 142 X_7_12 + 727 X_7_13 + 354 X_7_14
  + 489 X_8_0 + 548 X_8_1 + 376 X_8_2 + 85 X_8_3 + 365 X_8_4 + 430 X_8_5 + 386 X_8_6 + 599 X_8_7
  + 406 X_8_9 + 602 X_8_10 + 400 X_8_11 + 481 X_8_12 + 986 X_8_13 + 934 X_8_14 + 757 X_9_0 + 469 X_9_1
  + 191 X_9_2 + 344 X_9_3 + 303 X_9_4 + 654 X_9_5 + 53 X_9_6 + 230 X_9_7 + 406 X_9_8 + 423 X_9_10
  + 62 X_9_11 + 88 X_9_12 + 872 X_9_13 + 585 X_9_14 + 634 X_10_0 + 130 X_10_1 + 607 X_10_2 + 516 X_10_3
  + 236 X_10_4 + 523 X_10_5 + 473 X_10_6 + 310 X_10_7 + 602 X_10_8 + 423 X_10_9 + 362 X_10_11 + 374 X_10_12
  + 448 X_10_13 + 429 X_10_14 + 713 X_11_0 + 406 X_11_1 + 247 X_11_2 + 329 X_11_3 + 245 X_11_4 + 608 X_11_5
  + 111 X_11_6 + 204 X_11_7 + 400 X_11_8 + 62 X_11_9 + 362 X_11_10 + 83 X_11_12 + 811 X_11_13 + 556 X_11_14
  + 789 X_12_0 + 442 X_12_1 + 271 X_12_2 + 412 X_12_3 + 307 X_12_4 + 682 X_12_5 + 138 X_12_6 + 142 X_12_7
  + 481 X_12_8 + 88 X_12_9 + 374 X_12_10 + 83 X_12_11 + 819 X_12_13 + 496 X_12_14 + 793 X_13_0 + 443 X_13_1
  + 1055 X_13_2 + 907 X_13_3 + 642 X_13_4 + 717 X_13_5 + 922 X_13_6 + 727 X_13_7 + 986 X_13_8 + 872 X_13_9
  + 448 X_13_10 + 811 X_13_11 + 819 X_13_12 + 631 X_13_14 + 1063 X_14_0 + 558 X_14_1 + 760 X_14_2 + 851 X_14_3
  + 611 X_14_4 + 951 X_14_5 + 634 X_14_6 + 354 X_14_7 + 934 X_14_8 + 585 X_14_9 + 429 X_14_10 + 556 X_14_11
  + 496 X_14_12 + 631 X_14_13
  <= 5
 obj6:
  + 334 X_0_1 + 581 X_0_2 + 374 X_0_3 + 221 X_0_4 + 208 X_0_5 + 86 X_0_6 + 477 X_0_7 + 683 X_0_8
  + 685 X_0_9 + 130 X_0_10 + 188 X_0_11 + 701 X_0_12 + 168 X_0_13 + 63 X_0_14 + 334 X_1_0 + 452 X_1_2
  + 470 X_1_3 + 223 X_1_4 + 158 X_1_5 + 350 X_1_6 + 484 X_1_7 + 564 X_1_8 + 369 X_1_9 + 449 X_1_10
  + 321 X_1_11 + 716 X_1_12 + 421 X_1_13 + 392 X_1_14 + 581 X_2_0 + 452 X_2_1 + 330 X_2_3 + 364 X_2_4
  + 553 X_2_5 + 653 X_2_6 + 208 X_2_7 + 112 X_2_8 + 684 X_2_9 + 609 X_2_10 + 407 X_2_11 + 329 X_2_12
  + 512 X_2_13 + 599 X_2_14 + 374 X_3_0 + 470 X_3_1 + 330 X_3_2 + 254 X_3_4 + 470 X_3_5 + 460 X_3_6
  + 137 X_3_7 + 393 X_3_8 + 819 X_3_9 + 339 X_3_10 + 196 X_3_11 + 329 X_3_12 + 234 X_3_13 + 360 X_3_14
  + 221 X_4_0 + 223 X_4_1 + 364 X_4_2 + 254 X_4_3 + 223 X_4_5 + 289 X_4_6 + 303 X_4_7 + 470 X_4_8
  + 588 X_4_9 + 286 X_4_10 + 104 X_4_11 + 541 X_4_12 + 221 X_4_13 + 253 X_4_14 + 208 X_5_0 + 158 X_5_1
  + 553 X_5_2 + 470 X_5_3 + 223 X_5_4 + 199 X_5_6 + 526 X_5_7 + 665 X_5_8 + 479 X_5_9 + 337 X_5_10
  + 281 X_5_11 + 764 X_5_12 + 342 X_5_13 + 271 X_5_14 + 86 X_6_0 + 350 X_6_1 + 653 X_6_2 + 460 X_6_3
  + 289 X_6_4 + 199 X_6_5 + 560 X_6_7 + 758 X_6_8 + 675 X_6_9 + 188 X_6_10 + 271 X_6_11 + 786 X_6_12
  + 250 X_6_13 + 123 X_6_14 + 477 X_7_0 + 484 X_7_1 + 208 X_7_2 + 137 X_7_3 + 303 X_7_4 + 526 X_7_5
  + 560 X_7_6 + 258 X_7_8 + 797 X_7_9 + 464 X_7_10 + 289 X_7_11 + 238 X_7_12 + 360 X_7_13 + 475 X_7_14
  + 683 X_8_0 + 564 X_8_1 + 112 X_8_2 + 393 X_8_3 + 470 X_8_4 + 665 X_8_5 + 758 X_8_6 + 258 X_8_7
  + 775 X_8_9 + 701 X_8_10 + 503 X_8_11 + 284 X_8_12 + 600 X_8_13 + 697 X_8_14 + 685 X_9_0 + 369 X_9_1
  + 684 X_9_2 + 819 X_9_3 + 588 X_9_4 + 479 X_9_5 + 675 X_9_6 + 797 X_9_7 + 775 X_9_8 + 810 X_9_10
  + 689 X_9_11 + 1003 X_9_12 + 790 X_9_13 + 747 X_9_14 + 130 X_10_0 + 449 X_10_1 + 609 X_10_2 + 339 X_10_3
  + 286 X_10_4 + 337 X_10_5 + 188 X_10_6 + 464 X_10_7 + 701 X_10_8 + 810 X_10_9 + 205 X_10_11 + 665 X_10_12
  + 104 X_10_13 + 68 X_10_14 + 188 X_11_0 + 321 X_11_1 + 407 X_11_2 + 196 X_11_3 + 104 X_11_4 + 281 X_11_5
  + 271 X_11_6 + 289 X_11_7 + 503 X_11_8 + 689 X_11_9 + 205 X_11_10 + 516 X_11_12 + 122 X_11_13 + 193 X_11_14
  + 701 X_12_0 + 716 X_12_1 + 329 X_12_2 + 329 X_12_3 + 541 X_12_4 + 764 X_12_5 + 786 X_12_6 + 238 X_12_7
  + 284 X_12_8 + 1003 X_12_9 + 665 X_12_10 + 516 X_12_11 + 562 X_12_13 + 689 X_12_14 + 168 X_13_0 + 421 X_13_1
  + 512 X_13_2 + 234 X_13_3 + 221 X_13_4 + 342 X_13_5 + 250 X_13_6 + 360 X_13_7 + 600 X_13_8 + 790 X_13_9
  + 104 X_13_10 + 122 X_13_11 + 562 X_13_12 + 133 X_13_14 + 63 X_14_0 + 392 X_14_1 + 599 X_14_2 + 360 X_14_3
  + 253 X_14_4 + 271 X_14_5 + 123 X_14_6 + 475 X_14_7 + 697 X_14_8 + 747 X_14_9 + 68 X_14_10 + 193 X_14_11
  + 689 X_14_12 + 133 X_14_13
  <= 6
 obj7:
  + 729 X_0_1 + 431 X_0_2 + 570 X_0_3 + 781 X_0_4 + 430 X_0_5 + 678 X_0_6 + 709 X_0_7 + 239 X_0_8
  + 277 X_0_9 + 669 X_0_10 + 230 X_0_11 + 448 X_0_12 + 289 X_0_13 + 600 X_0_14 + 729 X_1_0 + 605 X_1_2
  + 184 X_1_3 + 419 X_1_4 + 300 X_1_5 + 805 X_1_6 + 460 X_1_7 + 901 X_1_8 + 539 X_1_9 + 262 X_1_10
  + 509 X_1_11 + 929 X_1_12 + 785 X_1_13 + 170 X_1_14 + 431 X_2_0 + 605 X_2_1 + 425 X_2_3 + 425 X_2_4
  + 392 X_2_5 + 277 X_2_6 + 851 X_2_7 + 670 X_2_8 + 187 X_2_9 + 711 X_2_10 + 414 X_2_11 + 339 X_2_12
  + 691 X_2_13 + 435 X_2_14 + 570 X_3_0 + 184 X_3_1 + 425 X_3_2 + 346 X_3_4 + 151 X_3_5 + 644 X_3_6
  + 512 X_3_7 + 765 X_3_8 + 357 X_3_9 + 329 X_3_10 + 368 X_3_11 + 744 X_3_12 + 676 X_3_13 + 32 X_3_14
  + 781 X_4_0 + 419 X_4_1 + 425 X_4_2 + 346 X_4_3 + 463 X_4_5 + 481 X_4_6 + 849 X_4_7 + 1011 X_4_8
  + 506 X_4_9 + 656 X_4_10 + 643 X_4_11 + 751 X_4_12 + 967 X_4_13 + 321 X_4_14 + 430 X_5_0 + 300 X_5_1
  + 392 X_5_2 + 151 X_5_3 + 463 X_5_4 + 651 X_5_6 + 464 X_5_7 + 615 X_5_8 + 263 X_5_9 + 321 X_5_10
  + 217 X_5_11 + 670 X_5_12 + 526 X_5_13 + 183 X_5_14 + 678 X_6_0 + 805 X_6_1 + 277 X_6_2 + 644 X_6_3
  + 481 X_6_4 + 651 X_6_5 + 1115 X_6_7 + 907 X_6_8 + 464 X_6_9 + 959 X_6_10 + 691 X_6_11 + 378 X_6_12
  + 955 X_6_13 + 643 X_6_14 + 709 X_7_0 + 460 X_7_1 + 851 X_7_2 + 512 X_7_3 + 849 X_7_4 + 464 X_7_5
  + 1115 X_7_6 + 758 X_7_8 + 694 X_7_9 + 198 X_7_10 + 506 X_7_11 + 1087 X_7_12 + 582 X_7_13 + 530 X_7_14
  + 239 X_8_0 + 901 X_8_1 + 670 X_8_2 + 765 X_8_3 + 1011 X_8_4 + 615 X_8_5 + 907 X_8_6 + 758 X_8_7
  + 514 X_8_9 + 779 X_8_10 + 397 X_8_11 + 627 X_8_12 + 184 X_8_13 + 797 X_8_14 + 277 X_9_0 + 539 X_9_1
  + 187 X_9_2 + 357 X_9_3 + 506 X_9_4 + 263 X_9_5 + 464 X_9_6 + 694 X_9_7 + 514 X_9_8 + 579 X_9_10
  + 227 X_9_11 + 407 X_9_12 + 510 X_9_13 + 380 X_9_14 + 669 X_10_0 + 262 X_10_1 + 711 X_10_2 + 329 X_10_3
  + 656 X_10_4 + 321 X_10_5 + 959 X_10_6 + 198 X_10_7 + 779 X_10_8 + 579 X_10_9 + 442 X_10_11 + 986 X_10_12
  + 627 X_10_13 + 343 X_10_14 + 230 X_11_0 + 509 X_11_1 + 414 X_11_2 + 368 X_11_3 + 643 X_11_4 + 217 X_11_5
  + 691 X_11_6 + 506 X_11_7 + 397 X_11_8 + 227 X_11_9 + 442 X_11_10 + 585 X_11_12 + 323 X_11_13 + 400 X_11_14
  + 448 X_12_0 + 929 X_12_1 + 339 X_12_2 + 744 X_12_3 + 751 X_12_4 + 670 X_12_5 + 378 X_12_6 + 1087 X_12_7
  + 627 X_12_8 + 407 X_12_9 + 986 X_12_10 + 585 X_12_11 + 734 X_12_13 + 760 X_12_14 + 289 X_13_0 + 785 X_13_1
  + 691 X_13_2 + 676 X_13_3 + 967 X_13_4 + 526 X_13_5 + 955 X_13_6 + 582 X_13_7 + 184 X_13_8 + 510 X_13_9
  + 627 X_13_10 + 323 X_13_11 + 734 X_13_12 + 709 X_13_14 + 600 X_14_0 + 170 X_14_1 + 435 X_14_2 + 32 X_14_3
  + 321 X_14_4 + 183 X_14_5 + 643 X_14_6 + 530 X_14_7 + 797 X_14_8 + 380 X_14_9 + 343 X_14_10 + 400 X_14_11
  + 760 X_14_12 + 709 X_14_13
  <= 7
Bounds
 1 <= U1 <= 14
 1 <= U2 <= 14
 1 <= U3 <= 14
 1 <= U4 <= 14
 1 <= U5 <= 14
 1 <= U6 <= 14
 1 <= U7 <= 14
 1 <= U8 <= 14
 1 <= U9 <= 14
 1 <= U10 <= 14
 1 <= U11 <= 14
 1 <= U12 <= 14
 1 <= U13 <= 14
 1 <= U14 <= 14
Binary
 X_0_1
 X_0_2
 X_0_3
 X_0_4
 X_0_5
 X_0_6
 X_0_7
 X_0_8
 X_0_9
 X_0_10
 X_0_11
 X_0_12
 X_0_13
 X_0_14
 X_1_0
 X_1_2
 X_1_3
 X_1_4
 X_1_5
 X_1_6
 X_1_7
 X_1_8
 X_1_9
 X_1_10
 X_1_11
 X_1_12
 X_1_13
 X_1_14
 X_2_0
 X_2_1
 X_2_3
 X_2_4
 X_2_5
 X_2_6
 X_2_7
 X_2_8
 X_2_9
 X_2_10
 X_2_11
 X_2_12
 X_2_13
 X_2_14
 X_3_0
 X_3_1
 X_3_2
 X_3_4
 X_3_5
 X_3_6
 X_3_7
 X_3_8
 X_3_9
 X_3_10
 X_3_11
 X_3_12
 X_3_13
 X_3_14
 X_4_0
 X_4_1
 X_4_2
 X_4_3
 X_4_5
 X_4_6
 X_4_7
 X_4_8
 X_4_9
 X_4_10
 X_4_11
 X_4_12
 X_4_13
 X_4_14
 X_5_0
 X_5_1
 X_5_2
 X_5_3
 X_5_4
 X_5_6
 X_5_7
 X_5_8
 X_5_9
 X_5_10
 X_5_11
 X_5_12
 X_5_13
 X_5_14
 X_6_0
 X_6_1
 X_6_2
 X_6_3
 X_6_4
 X_6_5
 X_6_7
 X_6_8
 X_6_9
 X_6_10
 X_6_11
 X_6_12
 X_6_13
 X_6_14
 X_7_0
 X_7_1
 X_7_2
 X_7_3
 X_7_4
 X_7_5
 X_7_6
 X_7_8
 X_7_9
 X_7_10
 X_7_11
 X_7_12
 X_7_13
 X_7_14
 X_8_0
 X_8_1
 X_8_2
 X_8_3
 X_8_4
 X_8_5
 X_8_6
 X_8_7
 X_8_9
 X_8_10
 X_8_11
 X_8_12
 X_8_13
 X_8_14
 X_9_0
 X_9_1
 X_9_2
 X_9_3
 X_9_4
 X_9_5
 X_9_6
 X_9_7
 X_9_8
 X_9_10
 X_9_11
 X_9_12
 X_9_13
 X_9_14
 X_10_0
 X_10_1
 X_10_2
 X_10_3
 X_10_4
 X_10_5
 X_10_6
 X_10_7
 X_10_8
 X_10_9
 X_10_11
 X_10_12
 X_10_13
 X_10_14
 X_11_0
 X_11_1
 X_11_2
 X_11_3
 X_11_4
 X_11_5
 X_11_6
 X_11_7
 X_11_8
 X_11_9
 X_11_10
 X_11_12
 X_11_13
 X_11_14
 X_12_0
 X_12_1
 X_12_2
 X_12_3
 X_12_4
 X_12_5
 X_12_6
 X_12_7
 X_12_8
 X_12_9
 X_12_10
 X_12_11
 X_12_13
 X_12_14
 X_13_0
 X_13_1
 X_13_2
 X_13_3
 X_13_4
 X_13_5
 X_13_6
 X_13_7
 X_13_8
 X_13_9
 X_13_10
 X_13_11
 X_13_12
 X_13_14
 X_14_0
 X_14_1
 X_14_2
 X_14_3
 X_14_4
 X_14_5
 X_14_6
 X_14_7
 X_14_8
 X_14_9
 X_14_10
 X_14_11
 X_14_12
 X_14_13
End
